p cnf 73 25
25 -26 0
25 -27 0
25 -28 0
25 -29 0
-11 12 13 14 15 16 17 18 19 20 0
9 23 24 27 0
-10 21 23 28 0
-9 21 22 26 0
-9 -10 21 29 0
11 -20 0
-24 -27 0
-22 -26 0
-23 -30 0
10 -30 0
-9 -30 0
-21 -29 0
10 -29 0
9 -29 0
-23 -28 0
-21 -28 0
10 -28 0
-23 -27 0
-21 -26 0
9 -26 0
-9 -27 0
